50 8
913 308
404 783
513 618
158 168
441 521
578 723
274 226
610 509
361 284
627 120
608 498
202 901
718 401
282 737
267 298
334 777
93 175
635 140
587 262
849 666
595 872
892 298
742 775
711 356
681 768
335 720
646 902
380 198
202 872
368 197
182 415
183 166
643 205
644 795
561 89
654 212
979 633
392 893
122 293
279 345
697 846
356 323
663 869
6 218
684 816
376 749
202 248
577 916
639 810
326 283
